s td 195 15 247
b 1 6 33 154 171
b 2 8 122 135
b 3 9 40 90 96
b 4 11 130 151 195
b 5 16 114 230
b 6 19 56 71 162 238
b 7 26 30 113 171
b 8 34 40 78 80
b 9 39 131 240 243
b 10 48 94 106 229
b 11 49 121 130 177
b 12 17 50 83 132
b 13 52 126 171 222
b 14 2 57 107 201
b 15 17 72 140 206
b 16 82 115 130 205 223
b 17 101 162 165 173 244
b 18 14 17 103 129
b 19 40 90 94 108 153
b 20 40 90 96 117
b 21 61 127 159 170 236
b 22 79 105 148 175 243
b 23 40 58 155 229
b 24 114 168 183
b 25 40 51 65 169
b 26 94 99 153 176
b 27 27 171 181 193
b 28 147 187 247
b 29 147 188 194
b 30 38 94 191 217
b 31 13 166 192 243
b 32 94 189 199 239
b 33 94 99 153 202
b 34 17 88 193 203
b 35 7 81 208 233
b 36 14 17 26 171 210
b 37 12 17 74 140
b 38 17 74 140 206
b 39 22 126 157 171
b 40 126 157 171 222
b 41 33 154 157 171
b 42 126 154 157 171
b 43 154 157 171 213
b 44 26 157 171
b 45 38 94 212 217
b 46 94 212 217 218
b 47 40 51 65 221
b 48 40 65 97 221
b 49 53 94 189 212
b 50 94 189 212 217
b 51 94 189 212 239
b 52 94 153 212
b 53 40 58 90 229
b 54 40 90 156 229
b 55 63 94 153 229
b 56 94 106 153 229
b 57 40 64 80 221
b 58 40 65 80 221
b 59 40 78 80 221
b 60 40 80 221
b 61 40 90 221
b 62 17 74 83 132
b 63 17 74 83 140
b 64 17 74 83 149
b 65 14 17 74
b 66 114 170 183
b 67 61 147 194
b 68 147 235 247
b 69 55 61 147 235
b 70 20 41 66 68 91
b 71 10 14 46 69 129
b 72 111 122 135 170
b 73 118 130 142 143 223
b 74 26 46 113 116 124
b 75 73 134 164 175 234
b 76 136 158 175 224 234
b 77 114 139 214 228
b 78 142 145 172 182 223
b 79 54 98 142 152 223
b 80 125 175 220 234 243
b 81 32 162 238 244
b 82 4 196 215 216 246
b 83 1 2 4 7 40 47 90 99 180 193 196 214 216
b 84 4 20 21 32 47 61 68 91 102 147 193 196 214 216
b 85 4 20 21 32 47 61 68 91 102 122 147 170 196 214 216
b 86 4 20 32 37 47 61 68 91 100 102 122 170 196 216 241
b 87 3 4 20 32 37 61 68 91 100 102 122 196 216 241 243
b 88 3 4 20 32 61 68 91 100 102 119 122 196 216 241 243
b 89 3 20 23 32 61 68 91 100 102 119 122 125 196 241 243
b 90 3 15 20 23 32 61 68 91 102 125 204 243
b 91 3 15 20 23 32 61 68 102 125 204 232
b 92 15 23 32 61 68 86 102 125 232
b 93 23 31 61 68 86 102 125 232
b 94 23 31 68 102 125 190 232
b 95 15 23 32 68 75 86 102 125 232
b 96 23 68 75 102 125 227 232
b 97 3 15 20 91 160 243
b 98 18 23 119 122 125 196 241
b 99 23 77 100 119 122 125 196
b 100 3 23 110 125 243
b 101 3 4 119 216 231 243
b 102 3 4 37 179 216 243
b 103 37 47 85 100 170 241
b 104 4 20 21 61 67 68 91 102 122 150 170 178 196 214 216
b 105 4 20 67 68 91 102 122 130 141 150 170 178 196 214 216
b 106 4 20 67 68 91 102 122 130 141 170 178 184 196 214 216
b 107 4 67 68 102 122 130 141 143 170 178 184 196 214 216 237
b 108 4 122 130 137 141 143 170 186 196 214 216 237
b 109 4 25 122 130 137 141 143 186 196 216 237
b 110 25 122 137 141 143 186 196 216 219 237
b 111 120 122 143 186 196 219 237
b 112 122 137 143 196 219 225 237
b 113 4 60 130 137 141 170 186 214 216
b 114 4 60 130 141 186 198 214 216
b 115 4 60 130 161 186 198 214
b 116 67 68 84 102 143 184 237
b 117 68 102 133 143 178 184 237
b 118 130 141 143 223 237
b 119 20 91 130 141 184 185
b 120 20 91 130 141 150 200
b 121 21 61 67 92 150 178
b 122 4 20 21 32 61 68 91 102 122 147 170 196 214 216 236
b 123 4 20 21 28 32 61 91 147 170 214 216 236
b 124 21 28 32 61 147 159 170 214 236
b 125 21 28 32 114 147 159 170 214
b 126 21 28 32 114 147 159 162 214
b 127 21 32 114 147 162 214 228
b 128 21 32 35 147 162 228
b 129 21 32 35 162 244
b 130 4 122 135 170 196 216
b 131 20 21 32 61 68 76 91 102 147 193 226
b 132 5 20 21 26 32 43 68 76 91 104 171 193 226 242
b 133 5 20 26 41 43 68 76 91 104 171 193 226 242
b 134 5 26 41 43 44 76 91 104 113 171 193 226 242
b 135 5 14 17 26 41 44 46 76 91 113 171 193 226 242
b 136 5 14 17 41 44 46 76 91 113 129 193 226 242
b 137 10 14 17 46 129 193
b 138 5 14 17 41 44 76 91 128 129 209 226 242
b 139 5 14 17 91 112 128 209 226 242
b 140 5 17 29 91 112 128 209 226
b 141 5 29 95 128 209 226
b 142 14 17 41 44 76 91 128 129 207 209 242
b 143 14 17 89 91 207 242
b 144 14 17 41 44 76 93 128 129 207 209
b 145 41 76 93 128 129 138 207
b 146 41 76 93 129 207 209 245
b 147 26 27 46 171 193
b 148 14 17 46 88 193
b 149 26 46 113 116 171 193
b 150 26 41 43 44 76 91 104 113 144 171 226 242
b 151 26 41 43 44 76 104 113 144 174 226 242
b 152 24 41 43 44 76 113 174 226
b 153 24 43 44 76 109 226
b 154 41 44 76 104 113 163 174
b 155 5 21 26 32 42 43 91 104 171 242
b 156 5 21 32 42 43 59 91 104 171
b 157 5 21 32 36 43 59 104
b 158 20 55 61 68 76 91 102 147 226
b 159 20 55 68 76 91 102 123
b 160 1 2 4 7 40 90 99 180 196 215 216
b 161 1 2 4 40 90 99 201 215
b 162 1 4 40 87 90 99 201 215
b 163 1 4 40 62 87 90
b 164 40 87 90 96 99 201 215
b 165 1 2 4 40 90 107 201
b 166 1 4 40 90 107 211
b 167 1 2 4 7 40 47 81 90 99 180 193 214
b 168 1 4 7 40 81 90 99 180 193 233
b 169 1 4 40 90 94 99 153 180 193 233
b 170 1 4 94 146 153 180
b 171 1 4 94 153 167 233
b 172 45 130 142 223 237
b 173 26 44 70 113 171
b 174 13 79 105 175 240 243
b 175 13 105 175 234 240 243
b 176 105 175 224 234 240 243
b 177 175 224 234 240 243
b 178 131 175 224 240 243
b 179 158 175 224 234 240 243
b 180 13 73 105 175 234 243
b 181 13 73 166 175 243
b 182 13 73 164 175 234 243
b 183 110 125 175 234 243
b 184 3 110 125 175 243
b 185 54 115 130 172 205 223
b 186 54 130 142 172 205 223
b 187 54 130 142 195 205 223
b 188 54 130 151 195 223
b 189 54 98 130 142 195 223
b 190 130 142 172 182 205 223
b 191 121 130 172 182 205 223
b 192 121 130 172 177 223
b 193 130 142 143 223 237
b 194 14 17 93 129 197
b 195 40 90 94 153 193 229
1 41
2 130
3 164
4 188
5 125
6 81
7 134
8 59
9 178
10 56
11 192
12 62
13 40
14 165
15 38
16 185
17 129
18 136
19 169
20 164
21 124
22 174
23 53
24 66
25 47
26 169
27 147
28 68
29 67
30 45
31 181
32 51
33 169
34 148
35 168
36 135
37 63
38 63
39 42
40 42
41 43
42 43
43 44
44 132
45 50
46 50
47 58
48 58
49 51
50 51
51 52
52 169
53 195
54 195
55 195
56 195
57 60
58 60
59 60
60 61
61 83
62 64
63 64
64 65
65 135
66 125
67 84
68 69
69 158
70 133
71 137
72 130
73 193
74 149
75 182
76 179
77 127
78 190
79 189
80 183
81 129
82 160
83 84
83 160
83 167
84 85
84 131
85 86
85 104
85 122
85 130
86 87
86 103
87 88
87 102
88 89
88 101
89 90
89 98
89 99
89 100
90 91
90 97
91 92
92 93
92 95
93 94
95 96
100 184
104 105
104 121
105 106
105 120
106 107
106 119
107 108
107 116
107 117
107 118
108 109
108 113
109 110
110 111
110 112
113 114
114 115
118 193
122 123
123 124
124 125
125 126
126 127
127 128
128 129
131 132
131 158
132 133
132 155
133 134
134 173
134 135
134 150
135 136
135 147
135 148
135 149
136 137
136 138
138 139
138 142
139 140
140 141
142 143
142 144
144 194
144 145
144 146
150 151
151 152
151 154
152 153
155 156
156 157
158 159
160 161
161 162
161 165
162 163
162 164
165 166
167 168
168 169
169 195
169 170
169 171
172 193
174 175
175 183
175 180
175 176
176 177
177 178
177 179
180 181
180 182
183 184
185 186
186 193
186 190
186 187
187 188
187 189
190 191
191 192
